benchmarks/VRPTW/TSPTW/solution/n20w200.004.txt.solution
1 14 7 19 18 15 11 4 3 12 5 13 2 17 20 8 16 10 9 6 21 
293
